data/CVRPLIB/Vrp-Set-XML100/instances/XML100_2112_14.vrp
NAME : XML100_2112_14
COMMENT : Generated by Queiroga, Sadykov, Uchoa, and Vidal (2021)
TYPE : CVRP
DIMENSION : 101
EDGE_WEIGHT_TYPE : EUC_2D
CAPACITY : 7
NODE_COORD_SECTION
1    500  500 
2    999  68  
3    330  494 
4    571  732 
5    270  232 
6    68   960 
7    643  920 
8    727  426 
9    719  33  
10   706  589 
11   527  445 
12   709  373 
13   203  82  
14   816  408 
15   80   177 
16   160  246 
17   265  328 
18   414  968 
19   34   47  
20   881  216 
21   616  733 
22   713  753 
23   499  500 
24   740  445 
25   454  998 
26   737  717 
27   1000 492 
28   241  577 
29   410  873 
30   553  715 
31   984  535 
32   209  967 
33   127  179 
34   205  869 
35   191  844 
36   502  869 
37   268  203 
38   124  812 
39   481  418 
40   798  207 
41   291  362 
42   273  650 
43   363  33  
44   445  66  
45   935  252 
46   794  211 
47   947  872 
48   107  965 
49   439  988 
50   686  967 
51   139  984 
52   886  959 
53   788  173 
54   534  173 
55   888  220 
56   352  217 
57   790  464 
58   688  922 
59   71   169 
60   278  871 
61   618  766 
62   749  933 
63   636  885 
64   86   489 
65   12   350 
66   994  152 
67   489  241 
68   707  450 
69   589  500 
70   491  800 
71   31   294 
72   46   706 
73   905  872 
74   401  798 
75   754  26  
76   932  312 
77   596  229 
78   898  603 
79   503  868 
80   945  987 
81   585  251 
82   839  239 
83   942  868 
84   790  538 
85   497  481 
86   483  821 
87   380  597 
88   203  794 
89   72   600 
90   190  565 
91   209  436 
92   787  218 
93   262  746 
94   770  555 
95   293  206 
96   699  992 
97   169  245 
98   191  556 
99   404  298 
100  622  609 
101  159  673 
DEMAND_SECTION
1    0   
2    1   
3    1   
4    1   
5    1   
6    1   
7    1   
8    1   
9    1   
10   1   
11   1   
12   1   
13   1   
14   1   
15   1   
16   1   
17   1   
18   1   
19   1   
20   1   
21   1   
22   1   
23   1   
24   1   
25   1   
26   1   
27   1   
28   1   
29   1   
30   1   
31   1   
32   1   
33   1   
34   1   
35   1   
36   1   
37   1   
38   1   
39   1   
40   1   
41   1   
42   1   
43   1   
44   1   
45   1   
46   1   
47   1   
48   1   
49   1   
50   1   
51   1   
52   1   
53   1   
54   1   
55   1   
56   1   
57   1   
58   1   
59   1   
60   1   
61   1   
62   1   
63   1   
64   1   
65   1   
66   1   
67   1   
68   1   
69   1   
70   1   
71   1   
72   1   
73   1   
74   1   
75   1   
76   1   
77   1   
78   1   
79   1   
80   1   
81   1   
82   1   
83   1   
84   1   
85   1   
86   1   
87   1   
88   1   
89   1   
90   1   
91   1   
92   1   
93   1   
94   1   
95   1   
96   1   
97   1   
98   1   
99   1   
100  1   
101  1   
DEPOT_SECTION
1
-1
EOF
