data/CVRPLIB/Vrp-Set-XML100/solutions/XML100_2112_14.sol
Route #1: 29 3 20 60 21 25 99
Route #2: 80 76 53 43 42 55 98
Route #3: 81 19 54 1 65 44 75
Route #4: 22 84
Route #5: 86 41 100 89 97 27 2
Route #6: 92 87 37 71 88 63 90
Route #7: 62 57 95 49 6 85 69
Route #8: 59 31 50 47 5 33 34
Route #9: 38 10 11 7 23 67 68
Route #10: 73 28 17 48 24 35 78
Route #11: 94 36 4 96 15 16 40
Route #12: 61 51 79 46 82 72 9
Route #13: 91 45 39 52 74 8 66
Route #14: 64 70 32 14 58 18 12
Route #15: 56 13 26 30 77 83 93
Cost 15995
